50

95 17 304
88 7 277
88 15 267
86 4 434
85 12 408
84 1 450
84 21 326
82 13 311
81 6 420
79 24 408
72 18 232
71 5 248
69 10 393
69 12 337
69 19 235
68 14 339
68 4 338
65 7 369
61 12 365
61 8 376
61 1 257
61 13 272
60 17 423
58 9 441
57 3 382
57 12 424
53 8 259
44 14 415
43 13 370
36 7 319
29 6 422
29 2 409
27 9 420
23 3 318
23 5 338
22 6 251
21 7 115
17 2 422
14 4 445
14 1 270
14 2 151
13 2 190
12 4 271
11 3 386
11 3 128
6 1 25
5 1 226
3 1 346
3 1 365
2 1 283
